p cnf 60 30
25 15 48 0
39 -33 48 0
21 -7 -29 0
-35 -17 -58 0
-18 -37 45 0
-5 -13 48 0
26 22 -13 0
21 -36 19 0
27 -50 -45 0
-30 15 -24 0
43 -51 24 0
-40 29 43 0
58 11 12 0
-22 -47 -46 0
59 7 -58 0
25 12 5 0
36 -28 40 0
-5 -17 -44 0
5 -10 -41 0
-53 -8 -1 0
-50 -51 11 0
22 42 44 0
54 -13 -48 0
18 -31 26 0
-41 -60 -56 0
-7 -58 -35 0
2 53 -21 0
-52 -10 19 0
34 56 -51 0
-57 38 58 0
